# Solution for model OBJROW
# Objective value = -47
x(0) 0
x(1) 1
x(2) 1
e_p(0) 0
e_p(1) 7
e_p(2) 7
xi_xj(0,1) 0
xi_xj(0,2) 0
xi_xj(1,2) 1
E 7
v(0) 42
v(1) 8
v(2) 7
y(0) 0
y(1) 0
y(2) 7
e(0) 0
e(1) 0
e(2) 1
xi_xj(0,0) 0
xi_xj(1,0) 0
xi_xj(2,0) 0
xi_xj(1,1) 0
xi_xj(2,1) 0
xi_xj(2,2) 0
